letting n_nurses=25
letting n_days=7
letting n_shift_types=4
letting max_covers=16
letting t_covers=87
letting covers=[16,2,1,0,2,13,0,0,14,3,0,0,13,2,1,0,1,1,0,0,2,3,0,0,2,11,0,0]
letting prefes=[3,2,3,3,1,3,3,1,3,1,1,3,4,2,4,4,1,1,4,1,1,1,4,3,1,1,4,3,3,2,3,3,1,2,3,1,3,1,1,1,4,1,4,4,1,4,4,1,1,2,1,1,1,2,1,1,1,1,1,1,1,1,1,1,1,1,1,1,4,1,4,4,1,1,1,1,1,1,1,1,1,1,1,1,3,1,3,3,1,1,1,3,1,4,1,1,4,1,4,4,1,4,4,1,1,2,1,1,1,2,1,1,3,1,3,3,1,1,1,1,1,1,1,1,1,1,1,1,1,1,1,1,1,1,1,1,1,1,1,1,3,1,3,3,2,1,1,1,1,1,1,1,4,2,4,4,1,1,4,1,2,2,4,1,2,2,4,1,3,1,3,3,1,1,1,1,1,1,1,3,4,1,4,4,4,4,4,4,1,1,1,3,1,1,1,3,3,1,3,3,1,1,1,4,1,2,3,1,4,1,4,4,1,4,1,1,1,1,1,1,1,1,1,1,3,1,3,3,2,1,1,1,1,1,1,1,4,1,4,4,1,1,1,1,2,1,1,1,2,1,1,1,3,1,3,3,1,3,1,1,1,1,3,1,4,1,4,4,1,4,4,1,1,1,1,1,1,1,1,1,3,2,3,3,2,1,1,1,1,1,1,1,4,2,4,4,1,4,4,1,2,1,1,1,2,1,1,1,1,1,1,1,2,1,3,1,3,2,1,1,1,1,1,1,2,4,4,2,2,1,1,1,2,1,1,1,3,1,3,3,1,2,1,1,1,4,1,1,4,2,4,4,2,4,4,2,1,2,1,1,1,2,1,1,1,1,1,1,1,1,1,1,1,1,1,3,1,1,1,1,1,4,4,1,1,1,1,3,1,1,1,3,3,1,3,3,1,1,1,1,1,1,1,3,4,1,4,4,1,4,4,1,1,1,1,3,1,1,1,3,3,1,3,3,1,1,1,1,1,1,1,3,4,1,4,4,1,4,4,1,1,1,4,3,1,1,4,3,3,1,3,3,2,1,3,1,3,1,1,1,4,1,4,4,1,4,4,1,2,1,1,1,2,1,1,1,3,1,3,3,1,1,1,1,1,1,1,1,4,1,4,4,1,4,4,1,1,1,1,1,1,1,1,1,3,2,3,3,1,1,3,1,3,1,1,1,4,2,4,4,1,4,4,1,1,1,1,1,1,1,1,1,1,1,1,1,1,1,1,4,1,1,3,1,4,1,4,4,1,4,1,1,1,2,1,1,1,2,1,1,3,2,3,3,1,1,1,1,1,1,1,1,4,1,4,4,4,4,4,4,1,1,4,1,1,1,4,1,3,1,3,3,1,3,1,4,1,1,1,1,4,1,4,4,4,4,4,4,1,1,1,1,1,1,1,1,1,1,1,1,1,1,1,1,1,3,1,1,1,1,1,1,1,4,4,1,1,1,1,1,1,1,1,1,3,1,3,3,1,1,1,4,1,1,3,1,1,1,1,1,1,4,4,1,1,1,1,1,1,1,1,1,3,1,3,3,1,1,1,1,1,1,3,1,4,1,4,4,1,4,4,1,1,1,4,1,1,1,4,1]
letting ub =  253
